p cnf 22 8
e 1 0
a 2 3 0
e 4 5 6 7 8 9 0
a 10 0
e 11 12 0
a 13 14 15 16 0
e 17 0
a 18 19 20 21 0
e 22 0
9 -20 22 -21 10 0
-6 16 0
5 -1 -3 -20 -12 0
-18 -21 -8 14 0
-2 -17 -21 -4 22 0
18 8 10 -4 -9 0
14 5 -11 6 -7 0
16 -10 -14 -8 0
